solution status: optimal solution found
objective value:                                    0
$_38_y                                             25 	(obj:0)
$_38_z                                              1 	(obj:0)
$_17__0_y                                         -25 	(obj:0)
$_17__0_z                                          25 	(obj:0)
$_22__0_y                                          25 	(obj:0)
$_22__0_z                                           2 	(obj:0)
$_23__0_y                                           5 	(obj:0)
$_23__0_z                                           1 	(obj:0)
$_34_y                                             25 	(obj:0)
$_34_z                                             21 	(obj:0)
$_28__0_y                                           5 	(obj:0)
$_28__0_z                                           2 	(obj:0)
$_33_y                                             25 	(obj:0)
$_33_z                                              3 	(obj:0)
$_21__0_y                                           1 	(obj:0)
$_21__0_z                                          25 	(obj:0)
$_19__0_y                                           5 	(obj:0)
$_19__0_z                                          25 	(obj:0)
$_32_y                                             25 	(obj:0)
$_32_z                                              4 	(obj:0)
$_35_y                                             25 	(obj:0)
$_35_z                                             22 	(obj:0)
$_26__0_y                                           5 	(obj:0)
$_26__0_z                                           3 	(obj:0)
$_29_y                                             19 	(obj:0)
$_29_z                                              5 	(obj:0)
$_36_y                                             25 	(obj:0)
$_36_z                                              5 	(obj:0)
$_20__0_y                                          25 	(obj:0)
$_20__0_z                                          25 	(obj:0)
$_74_y                                             25 	(obj:0)
$_74_z                                              6 	(obj:0)
$_30_y                                              5 	(obj:0)
$_30_z                                              5 	(obj:0)
$_25__0_y                                           6 	(obj:0)
$_25__0_z                                          25 	(obj:0)
$_31_y                                              1 	(obj:0)
$_31_z                                             21 	(obj:0)
$_18__0_y                                         -24 	(obj:0)
$_18__0_z                                          25 	(obj:0)
$_24__0_y                                           5 	(obj:0)
$_24__0_z                                           4 	(obj:0)
$_37_y                                             25 	(obj:0)
$_37_z                                              7 	(obj:0)
$_27__0_y                                           5 	(obj:0)
$_27__0_z                                           6 	(obj:0)
$_52_y                                             25 	(obj:0)
$_52_z                                              8 	(obj:0)
